WARNING: for repeatability, setting FPU to use double precision
============================[ Problem Statistics ]=============================
|                                                                             |
|  Number of variables:           100                                         |
|  Number of clauses:             449                                         |
|  Parse time:                   0.00 s                                       |
|  Eliminated clauses:           0.00 Mb                                      |
|  Simplification time:          0.00 s                                       |
|                                                                             |
============================[ Search Statistics ]==============================
| Conflicts |          ORIGINAL         |          LEARNT          | Progress |
|           |    Vars  Clauses Literals |    Limit  Clauses Lit/Cl |          |
===============================================================================
|       100 |      98      447     1356 |      163      100      8 |  0.010 % |
|       250 |      98      447     1356 |      180      164      7 |  0.010 % |
===============================================================================
restarts              : 4
conflicts             : 406            (96300 /sec)
decisions             : 485            (0.00 % random) (115038 /sec)
propagations          : 9696           (2299810 /sec)
conflict literals     : 2645           (20.36 % deleted)
Memory used           : 13.00 MB
CPU time              : 0.004216 s

SATISFIABLE
